2 100 1155
4 4 6 5 4 4 8 4 5 5
2 1
7 1
3
0 35.0 35.0 0.0 0.0 0 230
2 41.0 49.0 10.0 10.0 133 198 76 0 1 0 0 0 0 0 1 0 1
3 35.0 17.0 10.0 7.0 22 87 81 0 1 0 0 0 0 1 1 0 0
4 55.0 45.0 10.0 13.0 98 143 14 0 1 0 1 0 0 1 0 0 0
5 55.0 20.0 10.0 19.0 123 184 58 0 1 0 0 1 0 0 0 0 0
6 15.0 30.0 10.0 26.0 20 93 17 0 0 0 0 0 0 1 0 0 0
7 25.0 30.0 10.0 3.0 76 131 52 1 0 0 0 1 1 0 0 0 0
8 20.0 50.0 10.0 5.0 61 110 41 0 1 0 0 0 0 1 1 0 0
9 10.0 43.0 10.0 9.0 75 124 59 0 0 0 0 0 1 0 0 1 0
10 55.0 60.0 10.0 16.0 74 129 15 0 0 0 0 0 1 0 0 0 0
11 30.0 60.0 10.0 16.0 107 150 68 0 1 1 0 0 0 1 0 0 0
12 20.0 65.0 10.0 12.0 42 101 90 1 0 1 1 1 0 1 0 0 0
13 50.0 35.0 10.0 19.0 38 97 57 1 0 1 0 0 0 0 0 0 0
14 30.0 25.0 10.0 23.0 131 196 6 0 0 1 1 0 0 0 1 0 0
15 15.0 10.0 10.0 20.0 32 114 55 0 0 0 0 0 0 0 0 0 1
16 30.0 5.0 10.0 8.0 35 96 31 0 0 0 0 0 0 1 0 0 1
17 10.0 20.0 10.0 19.0 52 107 12 1 1 1 0 0 0 0 0 1 1
18 5.0 30.0 10.0 2.0 124 189 77 0 0 0 0 0 1 0 0 0 0
19 20.0 40.0 10.0 12.0 69 114 95 0 0 0 0 1 0 0 0 1 0
20 15.0 60.0 10.0 17.0 52 109 92 0 0 0 0 0 1 1 1 1 0
21 45.0 65.0 10.0 9.0 105 156 12 0 0 0 0 0 1 0 0 0 0
22 45.0 20.0 10.0 11.0 37 96 38 0 0 1 1 0 0 0 0 0 1
23 45.0 10.0 10.0 18.0 76 127 25 0 0 0 0 1 0 0 0 0 1
24 55.0 5.0 10.0 29.0 43 102 58 0 0 0 0 0 1 0 0 0 0
25 65.0 35.0 10.0 3.0 124 190 68 0 1 0 0 0 1 0 0 0 0
26 65.0 20.0 10.0 6.0 121 186 58 1 0 0 1 0 0 0 0 0 0
27 45.0 30.0 10.0 17.0 112 161 34 0 0 0 0 0 0 0 1 0 1
28 35.0 40.0 10.0 16.0 8 75 61 0 0 0 0 0 0 0 1 1 0
29 41.0 37.0 10.0 16.0 11 76 26 0 0 0 0 1 0 0 1 0 0
30 64.0 42.0 10.0 9.0 37 98 82 0 0 1 0 0 0 0 0 0 1
31 40.0 60.0 10.0 21.0 49 102 4 0 0 0 0 1 0 0 0 0 1
32 31.0 52.0 10.0 27.0 24 85 28 0 0 0 0 0 1 1 0 0 0
33 35.0 69.0 10.0 23.0 116 175 32 0 0 0 0 0 0 0 1 1 0
34 53.0 52.0 10.0 11.0 24 92 25 0 0 0 1 0 0 0 0 1 0
35 65.0 55.0 10.0 14.0 96 147 84 0 1 0 0 0 0 0 0 0 1
36 63.0 65.0 10.0 8.0 116 178 24 1 0 0 0 0 0 0 0 1 1
37 2.0 60.0 10.0 5.0 41 112 77 1 0 0 0 0 0 0 0 0 0
38 20.0 20.0 10.0 8.0 113 164 14 0 0 1 0 0 0 0 0 1 0
39 5.0 5.0 10.0 16.0 60 115 52 1 0 1 0 1 1 0 0 0 1
40 60.0 12.0 10.0 31.0 33 110 42 0 0 0 0 0 1 0 0 0 0
41 40.0 25.0 10.0 9.0 65 114 99 0 0 0 0 0 0 1 0 1 0
42 42.0 7.0 10.0 5.0 72 131 50 0 1 0 0 0 0 0 0 0 0
43 24.0 12.0 10.0 5.0 25 91 40 0 0 0 0 0 1 0 0 0 1
44 23.0 3.0 10.0 7.0 111 162 50 0 0 0 0 0 0 0 0 0 1
45 11.0 14.0 10.0 18.0 45 102 57 0 1 0 0 1 0 0 1 0 0
46 6.0 38.0 10.0 16.0 29 99 3 0 0 1 1 1 0 0 0 0 0
47 2.0 48.0 10.0 1.0 92 151 55 0 0 1 0 0 0 0 0 0 0
48 8.0 56.0 10.0 27.0 34 105 61 0 0 1 0 1 0 0 0 0 0
49 13.0 52.0 10.0 36.0 128 192 82 1 0 0 1 0 0 0 0 0 1
50 6.0 68.0 10.0 30.0 93 132 80 0 0 1 0 0 0 0 0 0 0
51 47.0 47.0 10.0 13.0 102 155 88 0 0 0 0 0 1 0 0 1 0
52 49.0 58.0 10.0 10.0 64 121 15 1 0 1 0 0 0 0 0 1 0
53 27.0 43.0 10.0 9.0 26 87 76 0 0 0 1 0 0 0 0 1 0
54 37.0 31.0 10.0 14.0 75 124 84 0 0 1 0 1 0 0 0 0 1
55 57.0 29.0 10.0 18.0 118 171 58 0 0 0 0 0 0 0 1 0 0
56 63.0 23.0 10.0 2.0 111 170 94 0 1 0 0 0 0 0 0 0 0
57 53.0 12.0 10.0 6.0 106 163 90 0 0 0 0 0 1 0 0 0 0
58 32.0 12.0 10.0 7.0 77 134 91 1 0 0 0 0 0 1 0 0 0
59 36.0 26.0 10.0 18.0 147 210 38 0 0 0 0 0 0 1 0 0 0
60 21.0 24.0 10.0 28.0 17 100 3 0 0 0 0 1 0 0 0 0 0
61 17.0 34.0 10.0 3.0 134 199 62 0 0 0 1 0 1 0 1 0 0
62 12.0 24.0 10.0 13.0 55 106 53 0 0 0 0 0 0 0 0 1 1
63 24.0 58.0 10.0 19.0 30 95 80 0 0 0 0 0 1 0 0 0 0
64 27.0 69.0 10.0 10.0 34 103 70 1 0 0 0 0 1 0 0 0 0
65 15.0 77.0 10.0 9.0 48 107 95 0 0 1 0 0 0 0 0 0 1
66 62.0 77.0 10.0 20.0 49 113 70 0 0 1 0 0 0 0 0 0 1
67 49.0 73.0 10.0 25.0 104 159 65 0 0 0 0 0 1 0 0 0 0
68 67.0 5.0 10.0 25.0 59 116 49 0 0 0 0 0 1 0 0 0 0
69 56.0 39.0 10.0 36.0 117 176 12 0 0 0 0 0 1 0 0 0 0
70 37.0 47.0 10.0 6.0 23 86 83 0 0 0 0 1 1 0 0 0 1
71 37.0 56.0 10.0 5.0 123 198 95 1 0 0 0 1 0 0 0 1 0
72 57.0 68.0 10.0 15.0 54 109 90 1 1 0 1 0 1 0 1 1 0
73 47.0 16.0 10.0 25.0 22 96 12 0 0 0 0 0 1 0 0 0 0
74 44.0 17.0 10.0 9.0 56 109 26 1 0 0 0 0 1 0 1 0 1
75 46.0 13.0 10.0 8.0 123 184 2 0 0 0 0 0 1 1 0 1 0
76 49.0 11.0 10.0 18.0 45 102 27 0 0 0 0 0 1 0 0 0 0
77 49.0 42.0 10.0 13.0 52 103 14 1 1 1 0 1 0 1 0 0 0
78 53.0 43.0 10.0 14.0 136 200 56 0 0 1 1 0 0 0 0 0 0
79 61.0 52.0 10.0 3.0 71 130 76 0 0 0 0 0 1 0 0 0 0
80 57.0 48.0 10.0 23.0 72 121 11 0 1 1 0 0 0 0 0 0 0
81 56.0 37.0 10.0 6.0 135 198 62 0 0 1 0 1 0 0 1 0 0
82 55.0 54.0 10.0 26.0 78 119 88 0 0 1 1 1 0 0 0 0 0
83 15.0 47.0 10.0 16.0 29 90 53 0 1 0 0 0 0 0 0 0 1
84 14.0 37.0 10.0 11.0 21 89 23 0 0 0 0 0 1 0 0 0 0
85 11.0 31.0 10.0 7.0 81 130 2 0 0 1 1 1 0 0 0 0 0
86 16.0 22.0 10.0 41.0 70 121 97 0 0 1 0 0 1 1 0 0 0
87 4.0 18.0 10.0 35.0 74 123 1 0 1 0 0 0 0 1 0 0 0
88 28.0 18.0 10.0 26.0 79 116 43 0 0 0 0 0 1 0 0 0 0
89 26.0 52.0 10.0 9.0 50 107 40 0 0 0 0 0 1 0 0 0 0
90 26.0 35.0 10.0 15.0 139 211 46 1 0 0 1 0 0 0 0 0 0
91 31.0 67.0 10.0 3.0 73 126 94 0 0 1 0 0 0 1 0 0 0
92 15.0 19.0 10.0 1.0 132 194 46 0 0 0 0 0 0 0 0 1 1
93 22.0 22.0 10.0 2.0 18 88 20 0 0 0 0 0 0 0 0 1 0
94 18.0 24.0 10.0 22.0 129 199 54 0 0 0 0 0 1 0 0 0 0
95 26.0 27.0 10.0 27.0 81 128 70 0 0 0 0 1 0 0 0 0 1
96 25.0 24.0 10.0 20.0 14 78 14 0 1 0 0 0 0 0 0 0 1
97 22.0 27.0 10.0 11.0 114 165 10 0 0 0 0 0 1 0 0 0 0
98 25.0 21.0 10.0 12.0 115 160 79 0 0 0 0 0 1 0 0 0 0
99 19.0 21.0 10.0 10.0 32 93 30 0 0 0 0 0 1 0 0 1 0
100 20.0 26.0 10.0 9.0 60 115 37 1 0 1 0 0 1 0 0 1 1
101 18.0 18.0 10.0 17.0 123 195 98 0 1 0 0 0 0 1 0 1 0